1616876
25,54,33,45,42,6,37,66,63,40,29,24,28,4,39,55,31,41,11,0,23,60,2,20,62,1,15,58,49,27,30,21,13,51,32,56,17,9,43,52,36,61,38,50,34,67,7,35,14,57,8,16,26,44,64,19,47,3,46,12,53,18,48,22,59,5,10,65
